c FILE /home/rafael/Documents/HappySet/MIHS/inputs/happygen/output/graph_random_k3_p0.2_v100_20241127_083606.txt
c SOURCE This is a random graph formed for the happy graph colouring problem.
c DESCRIPTION It was generated using the problem generator of Rhyd Lewis
c
c GRAPH STATS
c Seed                             = 1590937928
c Number of Nodes                  = 100
c Edge probability defined by user = 0.5
c Number of colours k              = 3
c Number of pre-assignments        = 20
c Actual density                   = 0.506667
c 
c The degrees of nodes 1 to 100, respectively, are as follows 
c [64, 62, 62, 60, 58, 58, 57, 57, 57, 57, 57, 56, 56, 56, 56, 56, 56, 56, 55, 55, 55, 55, 55, 54, 54, 54, 
c  54, 54, 54, 53, 52, 52, 52, 52, 52, 52, 52, 52, 51, 51, 51, 51, 51, 50, 50, 50, 50, 50, 50, 50, 50, 
c  50, 50, 50, 50, 50, 50, 49, 49, 49, 49, 49, 49, 49, 48, 48, 48, 48, 48, 48, 48, 47, 47, 47, 47, 47, 
c  46, 46, 46, 46, 45, 45, 45, 45, 45, 44, 44, 44, 44, 43, 43, 43, 43, 43, 42, 41, 40, 40, 38, 37] 
c  
p edge 100 2508 3
e 1 2
e 1 3
e 1 4
e 1 5
e 1 7
e 1 8
e 1 9
e 1 10
e 1 12
e 1 13
e 1 14
e 1 15
e 1 16
e 1 19
e 1 20
e 1 23
e 1 24
e 1 26
e 1 27
e 1 28
e 1 29
e 1 31
e 1 32
e 1 36
e 1 37
e 1 38
e 1 39
e 1 40
e 1 41
e 1 42
e 1 43
e 1 44
e 1 47
e 1 48
e 1 49
e 1 50
e 1 51
e 1 55
e 1 60
e 1 61
e 1 62
e 1 63
e 1 64
e 1 67
e 1 68
e 1 69
e 1 70
e 1 73
e 1 74
e 1 75
e 1 80
e 1 81
e 1 82
e 1 83
e 1 85
e 1 86
e 1 88
e 1 89
e 1 90
e 1 93
e 1 95
e 1 96
e 1 98
e 1 99
e 2 5
e 2 7
e 2 8
e 2 9
e 2 10
e 2 11
e 2 16
e 2 17
e 2 18
e 2 19
e 2 21
e 2 22
e 2 23
e 2 25
e 2 27
e 2 28
e 2 30
e 2 31
e 2 32
e 2 33
e 2 34
e 2 35
e 2 36
e 2 38
e 2 41
e 2 42
e 2 43
e 2 44
e 2 45
e 2 46
e 2 47
e 2 48
e 2 49
e 2 50
e 2 51
e 2 54
e 2 56
e 2 57
e 2 58
e 2 59
e 2 60
e 2 62
e 2 64
e 2 66
e 2 69
e 2 70
e 2 72
e 2 73
e 2 74
e 2 75
e 2 78
e 2 79
e 2 80
e 2 81
e 2 88
e 2 90
e 2 93
e 2 94
e 2 95
e 2 96
e 2 100
e 3 4
e 3 5
e 3 8
e 3 10
e 3 12
e 3 13
e 3 14
e 3 16
e 3 17
e 3 18
e 3 21
e 3 22
e 3 23
e 3 24
e 3 25
e 3 26
e 3 27
e 3 28
e 3 29
e 3 32
e 3 33
e 3 35
e 3 37
e 3 38
e 3 39
e 3 40
e 3 41
e 3 42
e 3 43
e 3 44
e 3 45
e 3 46
e 3 47
e 3 51
e 3 52
e 3 53
e 3 54
e 3 55
e 3 56
e 3 59
e 3 63
e 3 64
e 3 65
e 3 67
e 3 69
e 3 70
e 3 73
e 3 79
e 3 81
e 3 82
e 3 83
e 3 84
e 3 85
e 3 87
e 3 89
e 3 90
e 3 93
e 3 94
e 3 98
e 3 99
e 3 100
e 4 5
e 4 6
e 4 7
e 4 9
e 4 11
e 4 12
e 4 14
e 4 15
e 4 19
e 4 20
e 4 21
e 4 22
e 4 25
e 4 26
e 4 30
e 4 33
e 4 34
e 4 36
e 4 38
e 4 39
e 4 40
e 4 43
e 4 44
e 4 45
e 4 48
e 4 49
e 4 50
e 4 51
e 4 52
e 4 55
e 4 56
e 4 59
e 4 61
e 4 63
e 4 64
e 4 66
e 4 67
e 4 68
e 4 69
e 4 70
e 4 72
e 4 73
e 4 75
e 4 77
e 4 79
e 4 80
e 4 82
e 4 83
e 4 84
e 4 85
e 4 86
e 4 87
e 4 90
e 4 92
e 4 93
e 4 95
e 4 98
e 4 99
e 5 6
e 5 7
e 5 8
e 5 9
e 5 10
e 5 11
e 5 12
e 5 13
e 5 14
e 5 16
e 5 17
e 5 18
e 5 21
e 5 23
e 5 25
e 5 28
e 5 30
e 5 32
e 5 37
e 5 39
e 5 40
e 5 42
e 5 44
e 5 45
e 5 46
e 5 47
e 5 48
e 5 49
e 5 50
e 5 53
e 5 55
e 5 59
e 5 60
e 5 61
e 5 62
e 5 63
e 5 64
e 5 66
e 5 72
e 5 73
e 5 74
e 5 76
e 5 79
e 5 81
e 5 82
e 5 84
e 5 85
e 5 86
e 5 87
e 5 90
e 5 92
e 5 96
e 5 97
e 5 99
e 6 7
e 6 9
e 6 10
e 6 11
e 6 12
e 6 13
e 6 14
e 6 15
e 6 20
e 6 21
e 6 25
e 6 26
e 6 28
e 6 29
e 6 30
e 6 32
e 6 33
e 6 35
e 6 36
e 6 39
e 6 40
e 6 41
e 6 43
e 6 45
e 6 46
e 6 47
e 6 49
e 6 50
e 6 53
e 6 54
e 6 58
e 6 59
e 6 60
e 6 61
e 6 62
e 6 63
e 6 64
e 6 65
e 6 66
e 6 67
e 6 68
e 6 69
e 6 71
e 6 73
e 6 75
e 6 78
e 6 79
e 6 82
e 6 83
e 6 84
e 6 89
e 6 91
e 6 93
e 6 95
e 6 96
e 6 99
e 7 10
e 7 11
e 7 12
e 7 16
e 7 18
e 7 19
e 7 20
e 7 24
e 7 25
e 7 29
e 7 30
e 7 32
e 7 33
e 7 34
e 7 36
e 7 37
e 7 39
e 7 40
e 7 41
e 7 45
e 7 49
e 7 50
e 7 51
e 7 52
e 7 53
e 7 54
e 7 58
e 7 60
e 7 62
e 7 63
e 7 64
e 7 65
e 7 66
e 7 68
e 7 69
e 7 70
e 7 75
e 7 76
e 7 77
e 7 79
e 7 80
e 7 81
e 7 82
e 7 85
e 7 87
e 7 89
e 7 91
e 7 93
e 7 94
e 7 96
e 7 97
e 7 99
e 8 9
e 8 10
e 8 11
e 8 12
e 8 14
e 8 15
e 8 16
e 8 17
e 8 19
e 8 23
e 8 25
e 8 27
e 8 28
e 8 30
e 8 31
e 8 32
e 8 33
e 8 34
e 8 35
e 8 39
e 8 40
e 8 42
e 8 43
e 8 46
e 8 48
e 8 49
e 8 50
e 8 52
e 8 54
e 8 56
e 8 57
e 8 59
e 8 60
e 8 62
e 8 63
e 8 65
e 8 66
e 8 67
e 8 68
e 8 69
e 8 71
e 8 73
e 8 77
e 8 78
e 8 80
e 8 81
e 8 82
e 8 84
e 8 86
e 8 89
e 8 91
e 8 92
e 8 98
e 9 11
e 9 13
e 9 14
e 9 15
e 9 22
e 9 23
e 9 24
e 9 27
e 9 28
e 9 29
e 9 30
e 9 32
e 9 33
e 9 35
e 9 36
e 9 37
e 9 38
e 9 39
e 9 41
e 9 42
e 9 44
e 9 45
e 9 49
e 9 52
e 9 55
e 9 57
e 9 58
e 9 60
e 9 61
e 9 64
e 9 65
e 9 66
e 9 68
e 9 69
e 9 71
e 9 72
e 9 74
e 9 75
e 9 79
e 9 82
e 9 83
e 9 84
e 9 85
e 9 86
e 9 87
e 9 90
e 9 92
e 9 94
e 9 95
e 9 97
e 9 99
e 10 11
e 10 13
e 10 14
e 10 15
e 10 17
e 10 18
e 10 19
e 10 20
e 10 23
e 10 25
e 10 26
e 10 27
e 10 30
e 10 32
e 10 34
e 10 35
e 10 36
e 10 37
e 10 39
e 10 40
e 10 41
e 10 42
e 10 47
e 10 49
e 10 50
e 10 52
e 10 53
e 10 54
e 10 57
e 10 58
e 10 59
e 10 60
e 10 61
e 10 62
e 10 70
e 10 71
e 10 73
e 10 75
e 10 76
e 10 77
e 10 79
e 10 82
e 10 84
e 10 85
e 10 89
e 10 90
e 10 95
e 10 96
e 10 99
e 10 100
e 11 15
e 11 16
e 11 18
e 11 20
e 11 21
e 11 22
e 11 24
e 11 26
e 11 27
e 11 29
e 11 35
e 11 36
e 11 37
e 11 38
e 11 39
e 11 40
e 11 43
e 11 44
e 11 45
e 11 46
e 11 48
e 11 49
e 11 51
e 11 53
e 11 55
e 11 56
e 11 57
e 11 60
e 11 61
e 11 62
e 11 64
e 11 65
e 11 66
e 11 67
e 11 71
e 11 73
e 11 74
e 11 75
e 11 76
e 11 78
e 11 80
e 11 81
e 11 82
e 11 84
e 11 85
e 11 89
e 11 94
e 11 95
e 11 96
e 12 14
e 12 15
e 12 17
e 12 19
e 12 20
e 12 21
e 12 22
e 12 23
e 12 26
e 12 27
e 12 28
e 12 29
e 12 30
e 12 33
e 12 36
e 12 37
e 12 38
e 12 40
e 12 43
e 12 44
e 12 49
e 12 51
e 12 52
e 12 56
e 12 58
e 12 60
e 12 62
e 12 65
e 12 66
e 12 67
e 12 68
e 12 69
e 12 70
e 12 71
e 12 72
e 12 73
e 12 74
e 12 77
e 12 78
e 12 79
e 12 85
e 12 87
e 12 88
e 12 90
e 12 91
e 12 92
e 12 94
e 12 97
e 12 98
e 13 14
e 13 16
e 13 17
e 13 18
e 13 19
e 13 20
e 13 22
e 13 24
e 13 25
e 13 26
e 13 27
e 13 28
e 13 29
e 13 30
e 13 31
e 13 34
e 13 35
e 13 36
e 13 38
e 13 40
e 13 41
e 13 42
e 13 43
e 13 46
e 13 47
e 13 48
e 13 49
e 13 50
e 13 54
e 13 56
e 13 62
e 13 64
e 13 65
e 13 68
e 13 69
e 13 74
e 13 75
e 13 76
e 13 77
e 13 78
e 13 79
e 13 80
e 13 82
e 13 83
e 13 85
e 13 86
e 13 88
e 13 92
e 13 93
e 13 99
e 14 15
e 14 16
e 14 17
e 14 19
e 14 21
e 14 24
e 14 25
e 14 26
e 14 27
e 14 28
e 14 30
e 14 31
e 14 32
e 14 35
e 14 36
e 14 37
e 14 43
e 14 44
e 14 45
e 14 48
e 14 51
e 14 53
e 14 54
e 14 56
e 14 57
e 14 58
e 14 59
e 14 60
e 14 63
e 14 64
e 14 68
e 14 69
e 14 71
e 14 72
e 14 75
e 14 76
e 14 79
e 14 80
e 14 82
e 14 87
e 14 88
e 14 91
e 14 92
e 14 93
e 14 96
e 14 98
e 15 16
e 15 18
e 15 19
e 15 21
e 15 23
e 15 25
e 15 28
e 15 29
e 15 30
e 15 31
e 15 32
e 15 33
e 15 37
e 15 40
e 15 41
e 15 42
e 15 43
e 15 44
e 15 45
e 15 47
e 15 48
e 15 50
e 15 52
e 15 53
e 15 55
e 15 56
e 15 57
e 15 58
e 15 60
e 15 61
e 15 62
e 15 63
e 15 65
e 15 70
e 15 71
e 15 73
e 15 74
e 15 75
e 15 76
e 15 77
e 15 79
e 15 83
e 15 85
e 15 87
e 15 88
e 15 95
e 15 98
e 16 19
e 16 21
e 16 24
e 16 25
e 16 26
e 16 27
e 16 28
e 16 31
e 16 32
e 16 34
e 16 37
e 16 38
e 16 39
e 16 41
e 16 42
e 16 48
e 16 51
e 16 52
e 16 53
e 16 54
e 16 57
e 16 58
e 16 59
e 16 61
e 16 63
e 16 64
e 16 68
e 16 69
e 16 70
e 16 71
e 16 72
e 16 74
e 16 75
e 16 76
e 16 78
e 16 80
e 16 81
e 16 83
e 16 85
e 16 86
e 16 87
e 16 90
e 16 92
e 16 95
e 16 96
e 16 97
e 17 19
e 17 21
e 17 23
e 17 24
e 17 25
e 17 29
e 17 31
e 17 32
e 17 33
e 17 35
e 17 36
e 17 37
e 17 38
e 17 40
e 17 42
e 17 44
e 17 46
e 17 51
e 17 52
e 17 53
e 17 55
e 17 58
e 17 59
e 17 61
e 17 62
e 17 67
e 17 71
e 17 72
e 17 73
e 17 74
e 17 75
e 17 76
e 17 77
e 17 79
e 17 80
e 17 81
e 17 82
e 17 83
e 17 85
e 17 87
e 17 89
e 17 90
e 17 91
e 17 92
e 17 94
e 17 95
e 17 99
e 17 100
e 18 19
e 18 20
e 18 21
e 18 22
e 18 24
e 18 26
e 18 28
e 18 30
e 18 38
e 18 40
e 18 44
e 18 45
e 18 46
e 18 47
e 18 49
e 18 50
e 18 51
e 18 53
e 18 54
e 18 55
e 18 56
e 18 58
e 18 59
e 18 60
e 18 61
e 18 64
e 18 66
e 18 68
e 18 69
e 18 73
e 18 74
e 18 75
e 18 77
e 18 79
e 18 80
e 18 82
e 18 84
e 18 85
e 18 87
e 18 88
e 18 90
e 18 91
e 18 92
e 18 93
e 18 94
e 18 95
e 18 97
e 18 99
e 19 20
e 19 21
e 19 24
e 19 25
e 19 26
e 19 27
e 19 28
e 19 30
e 19 32
e 19 33
e 19 34
e 19 35
e 19 38
e 19 39
e 19 44
e 19 46
e 19 48
e 19 51
e 19 54
e 19 55
e 19 57
e 19 60
e 19 61
e 19 63
e 19 64
e 19 65
e 19 68
e 19 69
e 19 71
e 19 73
e 19 75
e 19 76
e 19 77
e 19 78
e 19 79
e 19 83
e 19 86
e 19 87
e 19 88
e 19 92
e 19 93
e 19 94
e 20 21
e 20 22
e 20 23
e 20 24
e 20 29
e 20 30
e 20 31
e 20 32
e 20 35
e 20 36
e 20 37
e 20 39
e 20 40
e 20 45
e 20 46
e 20 47
e 20 48
e 20 56
e 20 60
e 20 62
e 20 63
e 20 64
e 20 65
e 20 66
e 20 67
e 20 68
e 20 70
e 20 71
e 20 72
e 20 73
e 20 74
e 20 79
e 20 80
e 20 82
e 20 84
e 20 86
e 20 88
e 20 89
e 20 91
e 20 92
e 20 93
e 20 94
e 20 95
e 20 96
e 20 97
e 21 26
e 21 29
e 21 30
e 21 31
e 21 33
e 21 34
e 21 36
e 21 38
e 21 39
e 21 43
e 21 46
e 21 49
e 21 50
e 21 51
e 21 54
e 21 55
e 21 56
e 21 57
e 21 58
e 21 60
e 21 62
e 21 63
e 21 68
e 21 70
e 21 72
e 21 73
e 21 77
e 21 78
e 21 79
e 21 81
e 21 84
e 21 85
e 21 86
e 21 87
e 21 89
e 21 90
e 21 91
e 21 93
e 21 94
e 21 97
e 21 100
e 22 23
e 22 25
e 22 26
e 22 28
e 22 31
e 22 33
e 22 34
e 22 38
e 22 40
e 22 41
e 22 43
e 22 44
e 22 45
e 22 46
e 22 47
e 22 48
e 22 49
e 22 53
e 22 57
e 22 58
e 22 60
e 22 62
e 22 65
e 22 67
e 22 68
e 22 69
e 22 70
e 22 71
e 22 72
e 22 75
e 22 77
e 22 78
e 22 79
e 22 82
e 22 83
e 22 84
e 22 85
e 22 86
e 22 88
e 22 89
e 22 90
e 22 91
e 22 92
e 22 93
e 22 96
e 22 98
e 23 25
e 23 26
e 23 28
e 23 29
e 23 31
e 23 32
e 23 33
e 23 34
e 23 36
e 23 37
e 23 40
e 23 41
e 23 42
e 23 45
e 23 46
e 23 47
e 23 49
e 23 51
e 23 52
e 23 54
e 23 55
e 23 56
e 23 57
e 23 58
e 23 59
e 23 61
e 23 62
e 23 64
e 23 69
e 23 74
e 23 75
e 23 77
e 23 82
e 23 85
e 23 86
e 23 87
e 23 89
e 23 90
e 23 91
e 23 93
e 23 94
e 23 96
e 23 97
e 24 25
e 24 26
e 24 28
e 24 29
e 24 30
e 24 33
e 24 34
e 24 35
e 24 36
e 24 39
e 24 40
e 24 42
e 24 43
e 24 48
e 24 51
e 24 53
e 24 54
e 24 56
e 24 57
e 24 58
e 24 60
e 24 62
e 24 63
e 24 64
e 24 65
e 24 66
e 24 67
e 24 68
e 24 70
e 24 71
e 24 72
e 24 74
e 24 75
e 24 77
e 24 78
e 24 80
e 24 82
e 24 93
e 24 94
e 24 95
e 24 96
e 24 98
e 25 26
e 25 29
e 25 30
e 25 32
e 25 34
e 25 37
e 25 38
e 25 40
e 25 41
e 25 43
e 25 44
e 25 45
e 25 46
e 25 47
e 25 49
e 25 51
e 25 55
e 25 56
e 25 58
e 25 60
e 25 61
e 25 62
e 25 63
e 25 64
e 25 70
e 25 73
e 25 76
e 25 78
e 25 80
e 25 82
e 25 88
e 25 90
e 25 91
e 25 94
e 25 98
e 25 99
e 25 100
e 26 30
e 26 31
e 26 33
e 26 34
e 26 35
e 26 37
e 26 38
e 26 40
e 26 41
e 26 42
e 26 44
e 26 46
e 26 48
e 26 49
e 26 53
e 26 55
e 26 56
e 26 57
e 26 59
e 26 62
e 26 63
e 26 64
e 26 67
e 26 68
e 26 69
e 26 70
e 26 71
e 26 72
e 26 77
e 26 78
e 26 81
e 26 82
e 26 96
e 26 97
e 26 98
e 26 99
e 26 100
e 27 28
e 27 29
e 27 30
e 27 31
e 27 34
e 27 35
e 27 37
e 27 38
e 27 39
e 27 42
e 27 45
e 27 47
e 27 49
e 27 51
e 27 52
e 27 54
e 27 58
e 27 60
e 27 61
e 27 65
e 27 66
e 27 67
e 27 69
e 27 70
e 27 71
e 27 72
e 27 73
e 27 77
e 27 78
e 27 84
e 27 87
e 27 88
e 27 89
e 27 90
e 27 91
e 27 92
e 27 93
e 27 94
e 27 95
e 27 97
e 27 98
e 27 100
e 28 31
e 28 32
e 28 33
e 28 35
e 28 36
e 28 39
e 28 40
e 28 41
e 28 42
e 28 43
e 28 47
e 28 50
e 28 52
e 28 53
e 28 54
e 28 57
e 28 59
e 28 61
e 28 63
e 28 65
e 28 67
e 28 68
e 28 69
e 28 74
e 28 78
e 28 79
e 28 80
e 28 82
e 28 84
e 28 86
e 28 88
e 28 89
e 28 94
e 28 95
e 28 97
e 28 100
e 29 31
e 29 33
e 29 34
e 29 39
e 29 40
e 29 41
e 29 42
e 29 43
e 29 44
e 29 45
e 29 46
e 29 47
e 29 48
e 29 49
e 29 50
e 29 52
e 29 53
e 29 55
e 29 56
e 29 58
e 29 61
e 29 62
e 29 63
e 29 70
e 29 71
e 29 74
e 29 76
e 29 78
e 29 79
e 29 81
e 29 82
e 29 83
e 29 86
e 29 87
e 29 88
e 29 90
e 29 93
e 29 100
e 30 31
e 30 32
e 30 33
e 30 35
e 30 36
e 30 37
e 30 41
e 30 42
e 30 45
e 30 50
e 30 51
e 30 52
e 30 55
e 30 57
e 30 58
e 30 59
e 30 62
e 30 64
e 30 65
e 30 74
e 30 76
e 30 77
e 30 80
e 30 82
e 30 85
e 30 89
e 30 90
e 30 92
e 30 93
e 30 95
e 30 96
e 30 99
e 30 100
e 31 32
e 31 33
e 31 35
e 31 36
e 31 38
e 31 40
e 31 41
e 31 42
e 31 43
e 31 46
e 31 47
e 31 49
e 31 52
e 31 53
e 31 54
e 31 56
e 31 59
e 31 60
e 31 62
e 31 69
e 31 73
e 31 74
e 31 75
e 31 77
e 31 81
e 31 82
e 31 83
e 31 85
e 31 86
e 31 92
e 31 94
e 31 96
e 31 97
e 31 98
e 31 99
e 32 34
e 32 35
e 32 36
e 32 37
e 32 38
e 32 40
e 32 41
e 32 44
e 32 46
e 32 47
e 32 48
e 32 49
e 32 50
e 32 51
e 32 54
e 32 56
e 32 57
e 32 59
e 32 60
e 32 64
e 32 70
e 32 73
e 32 76
e 32 79
e 32 83
e 32 84
e 32 86
e 32 92
e 32 93
e 32 94
e 32 95
e 32 99
e 33 35
e 33 36
e 33 39
e 33 41
e 33 42
e 33 43
e 33 46
e 33 47
e 33 48
e 33 50
e 33 51
e 33 54
e 33 56
e 33 57
e 33 62
e 33 63
e 33 65
e 33 66
e 33 70
e 33 71
e 33 73
e 33 74
e 33 75
e 33 76
e 33 77
e 33 78
e 33 80
e 33 82
e 33 87
e 33 88
e 33 97
e 33 99
e 34 36
e 34 39
e 34 40
e 34 45
e 34 46
e 34 47
e 34 49
e 34 50
e 34 51
e 34 52
e 34 53
e 34 58
e 34 61
e 34 64
e 34 65
e 34 68
e 34 72
e 34 74
e 34 75
e 34 76
e 34 78
e 34 79
e 34 80
e 34 81
e 34 84
e 34 85
e 34 86
e 34 87
e 34 91
e 34 92
e 34 93
e 34 94
e 34 96
e 34 97
e 34 99
e 35 37
e 35 38
e 35 39
e 35 42
e 35 43
e 35 45
e 35 46
e 35 47
e 35 49
e 35 52
e 35 55
e 35 59
e 35 61
e 35 63
e 35 65
e 35 66
e 35 67
e 35 68
e 35 69
e 35 70
e 35 72
e 35 74
e 35 77
e 35 79
e 35 83
e 35 84
e 35 86
e 35 87
e 35 91
e 35 94
e 35 95
e 35 96
e 36 37
e 36 39
e 36 42
e 36 45
e 36 48
e 36 51
e 36 52
e 36 58
e 36 59
e 36 60
e 36 62
e 36 64
e 36 65
e 36 69
e 36 71
e 36 72
e 36 73
e 36 74
e 36 77
e 36 81
e 36 86
e 36 88
e 36 91
e 36 92
e 36 93
e 36 94
e 36 95
e 36 96
e 36 97
e 36 99
e 37 38
e 37 41
e 37 42
e 37 45
e 37 46
e 37 47
e 37 48
e 37 49
e 37 51
e 37 52
e 37 53
e 37 54
e 37 55
e 37 56
e 37 59
e 37 60
e 37 62
e 37 63
e 37 64
e 37 69
e 37 72
e 37 74
e 37 75
e 37 78
e 37 79
e 37 80
e 37 83
e 37 87
e 37 94
e 37 95
e 37 96
e 38 39
e 38 40
e 38 42
e 38 44
e 38 45
e 38 46
e 38 48
e 38 52
e 38 53
e 38 55
e 38 57
e 38 58
e 38 59
e 38 63
e 38 66
e 38 67
e 38 70
e 38 71
e 38 74
e 38 75
e 38 78
e 38 79
e 38 80
e 38 81
e 38 83
e 38 86
e 38 91
e 38 92
e 38 93
e 38 96
e 38 100
e 39 41
e 39 42
e 39 43
e 39 45
e 39 46
e 39 51
e 39 54
e 39 59
e 39 60
e 39 62
e 39 65
e 39 66
e 39 67
e 39 69
e 39 71
e 39 74
e 39 76
e 39 77
e 39 78
e 39 84
e 39 85
e 39 87
e 39 88
e 39 89
e 39 91
e 39 92
e 39 97
e 39 99
e 40 42
e 40 43
e 40 44
e 40 45
e 40 47
e 40 50
e 40 51
e 40 52
e 40 53
e 40 54
e 40 55
e 40 60
e 40 62
e 40 64
e 40 65
e 40 67
e 40 71
e 40 74
e 40 83
e 40 87
e 40 88
e 40 92
e 40 93
e 40 94
e 40 96
e 41 43
e 41 44
e 41 45
e 41 48
e 41 50
e 41 52
e 41 53
e 41 54
e 41 57
e 41 61
e 41 63
e 41 65
e 41 66
e 41 68
e 41 69
e 41 71
e 41 75
e 41 76
e 41 79
e 41 83
e 41 85
e 41 86
e 41 89
e 41 90
e 41 92
e 41 94
e 41 95
e 41 96
e 41 98
e 42 47
e 42 49
e 42 51
e 42 53
e 42 55
e 42 58
e 42 59
e 42 60
e 42 62
e 42 65
e 42 66
e 42 68
e 42 69
e 42 70
e 42 76
e 42 78
e 42 80
e 42 81
e 42 84
e 42 88
e 42 91
e 42 92
e 42 93
e 42 94
e 42 99
e 43 44
e 43 46
e 43 48
e 43 50
e 43 52
e 43 53
e 43 54
e 43 56
e 43 58
e 43 59
e 43 60
e 43 61
e 43 62
e 43 63
e 43 65
e 43 73
e 43 74
e 43 76
e 43 80
e 43 81
e 43 84
e 43 88
e 43 90
e 43 93
e 43 95
e 43 96
e 43 98
e 43 100
e 44 45
e 44 46
e 44 47
e 44 48
e 44 51
e 44 54
e 44 55
e 44 58
e 44 63
e 44 64
e 44 66
e 44 67
e 44 70
e 44 76
e 44 77
e 44 78
e 44 79
e 44 84
e 44 85
e 44 87
e 44 89
e 44 90
e 44 91
e 44 92
e 44 93
e 44 98
e 44 99
e 44 100
e 45 46
e 45 48
e 45 52
e 45 58
e 45 59
e 45 60
e 45 64
e 45 65
e 45 69
e 45 72
e 45 73
e 45 78
e 45 79
e 45 81
e 45 83
e 45 84
e 45 87
e 45 89
e 45 90
e 45 91
e 45 92
e 45 93
e 45 95
e 46 47
e 46 50
e 46 52
e 46 53
e 46 57
e 46 61
e 46 62
e 46 64
e 46 68
e 46 75
e 46 76
e 46 78
e 46 79
e 46 82
e 46 83
e 46 84
e 46 85
e 46 86
e 46 88
e 46 92
e 46 93
e 46 97
e 47 48
e 47 50
e 47 52
e 47 53
e 47 55
e 47 56
e 47 60
e 47 67
e 47 68
e 47 69
e 47 71
e 47 73
e 47 75
e 47 76
e 47 77
e 47 82
e 47 84
e 47 86
e 47 89
e 47 90
e 47 91
e 47 93
e 47 95
e 47 98
e 48 50
e 48 51
e 48 52
e 48 59
e 48 60
e 48 61
e 48 64
e 48 65
e 48 70
e 48 73
e 48 74
e 48 77
e 48 78
e 48 81
e 48 83
e 48 84
e 48 85
e 48 86
e 48 90
e 48 91
e 48 92
e 48 95
e 48 96
e 48 97
e 49 51
e 49 53
e 49 54
e 49 55
e 49 56
e 49 58
e 49 63
e 49 65
e 49 66
e 49 67
e 49 68
e 49 70
e 49 72
e 49 73
e 49 76
e 49 79
e 49 80
e 49 82
e 49 83
e 49 85
e 49 88
e 49 90
e 49 91
e 49 98
e 50 51
e 50 52
e 50 53
e 50 55
e 50 57
e 50 58
e 50 59
e 50 60
e 50 61
e 50 63
e 50 66
e 50 67
e 50 71
e 50 72
e 50 76
e 50 79
e 50 80
e 50 81
e 50 82
e 50 84
e 50 85
e 50 87
e 50 88
e 50 96
e 50 98
e 50 100
e 51 52
e 51 55
e 51 56
e 51 57
e 51 58
e 51 64
e 51 68
e 51 71
e 51 72
e 51 75
e 51 82
e 51 84
e 51 85
e 51 89
e 51 90
e 51 91
e 51 94
e 51 95
e 51 97
e 51 100
e 52 53
e 52 55
e 52 56
e 52 58
e 52 60
e 52 65
e 52 66
e 52 69
e 52 70
e 52 71
e 52 75
e 52 76
e 52 77
e 52 78
e 52 79
e 52 81
e 52 83
e 52 84
e 52 88
e 52 98
e 53 54
e 53 56
e 53 60
e 53 63
e 53 64
e 53 66
e 53 69
e 53 71
e 53 72
e 53 73
e 53 74
e 53 76
e 53 77
e 53 84
e 53 86
e 53 87
e 53 88
e 53 89
e 53 90
e 53 91
e 53 97
e 54 56
e 54 61
e 54 62
e 54 65
e 54 66
e 54 67
e 54 68
e 54 69
e 54 75
e 54 76
e 54 78
e 54 83
e 54 84
e 54 85
e 54 87
e 54 88
e 54 89
e 54 91
e 54 94
e 54 95
e 54 96
e 54 99
e 54 100
e 55 57
e 55 58
e 55 61
e 55 62
e 55 65
e 55 66
e 55 68
e 55 73
e 55 74
e 55 76
e 55 79
e 55 80
e 55 82
e 55 83
e 55 85
e 55 86
e 55 88
e 55 91
e 55 93
e 55 94
e 55 96
e 55 97
e 55 99
e 56 57
e 56 58
e 56 59
e 56 63
e 56 66
e 56 70
e 56 71
e 56 72
e 56 75
e 56 76
e 56 77
e 56 78
e 56 80
e 56 82
e 56 83
e 56 86
e 56 88
e 56 95
e 56 96
e 56 98
e 56 99
e 56 100
e 57 58
e 57 61
e 57 62
e 57 63
e 57 64
e 57 65
e 57 66
e 57 67
e 57 68
e 57 69
e 57 70
e 57 74
e 57 75
e 57 76
e 57 79
e 57 81
e 57 84
e 57 86
e 57 89
e 57 92
e 57 93
e 57 94
e 57 96
e 57 97
e 57 100
e 58 60
e 58 64
e 58 66
e 58 69
e 58 71
e 58 72
e 58 76
e 58 78
e 58 79
e 58 80
e 58 81
e 58 84
e 58 86
e 58 87
e 58 90
e 58 96
e 59 60
e 59 61
e 59 62
e 59 71
e 59 72
e 59 73
e 59 74
e 59 77
e 59 78
e 59 79
e 59 80
e 59 81
e 59 82
e 59 85
e 59 89
e 59 93
e 59 95
e 59 96
e 59 98
e 59 99
e 59 100
e 60 70
e 60 72
e 60 74
e 60 75
e 60 76
e 60 82
e 60 83
e 60 84
e 60 85
e 60 89
e 60 92
e 60 97
e 60 100
e 61 65
e 61 66
e 61 67
e 61 69
e 61 71
e 61 72
e 61 73
e 61 75
e 61 76
e 61 79
e 61 81
e 61 82
e 61 83
e 61 88
e 61 89
e 61 93
e 61 94
e 61 95
e 61 98
e 61 99
e 61 100
e 62 74
e 62 75
e 62 78
e 62 79
e 62 80
e 62 81
e 62 85
e 62 87
e 62 88
e 62 90
e 62 92
e 62 94
e 62 98
e 62 99
e 62 100
e 63 65
e 63 67
e 63 68
e 63 69
e 63 70
e 63 72
e 63 73
e 63 74
e 63 77
e 63 80
e 63 83
e 63 86
e 63 87
e 63 88
e 63 89
e 63 91
e 63 94
e 63 95
e 63 99
e 64 66
e 64 67
e 64 68
e 64 70
e 64 71
e 64 72
e 64 75
e 64 76
e 64 77
e 64 80
e 64 84
e 64 89
e 64 90
e 64 92
e 64 99
e 64 100
e 65 68
e 65 72
e 65 73
e 65 75
e 65 76
e 65 78
e 65 83
e 65 84
e 65 88
e 65 89
e 65 90
e 65 92
e 65 94
e 65 95
e 66 67
e 66 70
e 66 71
e 66 75
e 66 76
e 66 78
e 66 82
e 66 83
e 66 85
e 66 87
e 66 88
e 66 89
e 66 91
e 66 94
e 66 95
e 66 97
e 66 100
e 67 68
e 67 70
e 67 72
e 67 73
e 67 75
e 67 76
e 67 77
e 67 78
e 67 79
e 67 80
e 67 85
e 67 87
e 67 88
e 67 89
e 67 90
e 67 91
e 67 94
e 67 95
e 67 96
e 67 100
e 68 70
e 68 71
e 68 77
e 68 79
e 68 80
e 68 81
e 68 83
e 68 85
e 68 87
e 68 89
e 68 90
e 68 91
e 68 93
e 68 97
e 68 98
e 69 70
e 69 71
e 69 72
e 69 73
e 69 77
e 69 79
e 69 83
e 69 85
e 69 88
e 69 90
e 69 93
e 69 99
e 69 100
e 70 71
e 70 73
e 70 74
e 70 78
e 70 80
e 70 88
e 70 89
e 70 91
e 70 94
e 70 95
e 70 96
e 70 97
e 70 98
e 71 72
e 71 73
e 71 75
e 71 76
e 71 78
e 71 81
e 71 83
e 71 85
e 71 86
e 71 99
e 71 100
e 72 74
e 72 76
e 72 77
e 72 79
e 72 80
e 72 82
e 72 89
e 72 90
e 72 91
e 72 92
e 72 96
e 72 97
e 72 100
e 73 76
e 73 78
e 73 80
e 73 81
e 73 85
e 73 87
e 73 88
e 73 90
e 73 93
e 73 97
e 74 75
e 74 77
e 74 78
e 74 80
e 74 81
e 74 86
e 74 91
e 74 97
e 74 98
e 74 100
e 75 79
e 75 80
e 75 81
e 75 84
e 75 86
e 75 97
e 75 100
e 76 81
e 76 83
e 76 86
e 76 93
e 76 94
e 76 99
e 77 80
e 77 81
e 77 82
e 77 84
e 77 88
e 77 89
e 77 91
e 77 92
e 77 95
e 77 99
e 78 81
e 78 84
e 78 89
e 78 90
e 78 91
e 78 95
e 78 97
e 79 80
e 79 89
e 79 93
e 80 84
e 80 86
e 80 91
e 80 92
e 80 93
e 80 97
e 81 82
e 81 83
e 81 84
e 81 88
e 81 89
e 81 91
e 81 92
e 81 95
e 81 98
e 81 99
e 82 89
e 82 92
e 82 95
e 82 97
e 82 98
e 82 100
e 83 84
e 83 86
e 83 88
e 83 90
e 83 92
e 83 94
e 83 95
e 83 96
e 84 85
e 84 87
e 84 93
e 84 98
e 85 86
e 85 91
e 85 93
e 85 98
e 85 100
e 86 87
e 86 88
e 86 93
e 86 94
e 86 96
e 86 97
e 86 98
e 87 89
e 87 90
e 87 92
e 87 93
e 87 94
e 87 95
e 87 96
e 87 97
e 88 92
e 88 94
e 88 97
e 89 90
e 89 94
e 89 98
e 90 91
e 90 96
e 90 98
e 91 96
e 91 98
e 92 97
e 92 98
e 94 98
e 95 100
e 96 99
e 97 98
e 97 100
e 98 99
e 98 100
e 99 100
n 13 1
n 14 1
n 16 1
n 23 3
n 24 1
n 30 1
n 35 1
n 38 1
n 39 1
n 50 1
n 60 1
n 66 1
n 72 1
n 73 2
n 79 1
n 83 1
n 84 1
n 92 1
n 95 1
n 100 1
